16 965
525 7 482 7 394 7 212 9 29 11 822 15 623 21
525 7 482 7 394 7 212 9 29 11 822 15 623 21
520 7 444 7 352 7 190 9 19 11 841 15 712 23
521 7 443 7 347 7 188 9 44 11 869 18
521 7 443 7 347 7 188 9 44 11 869 18
525 7 477 7 391 7 243 9 99 11 915 15 758 21 604 30
525 7 477 7 391 7 243 9 99 11 915 15 758 21 604 30
535 8 491 8 398 9 234 10 96 15
525 7 477 7 390 7 241 9 75 11 912 18
525 7 482 7 393 7 246 9 101 11 3 15 843 19 651 23
525 7 484 7 368 7 123 9 857 11 631 18
525 7 482 7 365 7 212 9 29 11 823 18
525 7 445 7 264 7 63 9 889 11 720 18
525 7 482 7 367 7 213 9 32 11 824 18
525 7 482 7 367 7 213 9 32 11 824 18
525 7 482 7 394 7 212 9 29 11 822 15 623 21
